c clasp version 2.1.1
c Reading from pb_200_10.cnf
c Solving...
s UNSATISFIABLE

c Models        : 0     
c Time          : 32.306s (Solving: 31.66s 1st Model: 0.00s Unsat: 31.66s)
c CPU Time      : 32.240s
c Choices       : 150932
c Conflicts     : 106868
c Restarts      : 19     (Average: 5624.58 Last: 5834)

c Variables     : 176431 (Eliminated: 54428 Frozen:    0)
c Constraints   : 200210 (Binary: 65.2% Ternary: 33.5% Other:  1.3%)
c Lemmas        : 106867 (Binary:  0.7% Ternary:  1.2% Other: 98.1%)
c   Conflict    : 106867 (Average Length: 146.5) 
c   Loop        : 0      (Average Length: 0.0) 
c   Other       : 0      (Average Length: 0.0)
c   Deleted     : 76087 
